clingo version 4.5.4
Reading from ...utputs/output_1710588059.304377/asp.lp
Solving...
UNSATISFIABLE

Models       : 0     
Calls        : 1
Time         : 0.013s (Solving: 0.00s 1st Model: 0.00s Unsat: 0.00s)
CPU Time     : 0.016s
